problem_generation/data/GISP/train/er_n=66_m=1291_p=0.60_SET2_setparam=100.00_alpha=0.50_681.lp
maximize
OBJ:100x0 + 100x1 + 100x2 + 100x3 + 100x4 + 100x5 + 100x6 + 100x7 + 100x8 + 100x9 + 100x10 + 100x11 + 100x12 + 100x13 + 100x14 + 100x15 + 100x16 + 100x17 + 100x18 + 100x19 + 100x20 + 100x21 + 100x22 + 100x23 + 100x24 + 100x25 + 100x26 + 100x27 + 100x28 + 100x29 + 100x30 + 100x31 + 100x32 + 100x33 + 100x34 + 100x35 + 100x36 + 100x37 + 100x38 + 100x39 + 100x40 + 100x41 + 100x42 + 100x43 + 100x44 + 100x45 + 100x46 + 100x47 + 100x48 + 100x49 + 100x50 + 100x51 + 100x52 + 100x53 + 100x54 + 100x55 + 100x56 + 100x57 + 100x58 + 100x59 + 100x60 + 100x61 + 100x62 + 100x63 + 100x64 + 100x65 - y15_21 - y26_30 - y47_62 - y17_58 - y5_65 - y29_32 - y18_44 - y8_9 - y0_5 - y29_41 - y8_18 - y21_37 - y0_14 - y40_50 - y21_46 - y11_23 - y21_55 - y2_32 - y10_45 - y33_56 - y3_15 - y14_15 - y25_61 - y14_24 - y22_37 - y14_33 - y3_42 - y14_42 - y15_25 - y55_61 - y7_21 - y47_57 - y17_53 - y18_30 - y5_60 - y28_62 - y29_36 - y21_41 - y40_63 - y54_65 - y10_40 - y25_38 - y10_58 - y14_19 - y32_55 - y22_32 - y43_55 - y3_28 - y32_64 - y16_65 - y36_43 - y17_39 - y28_39 - y55_65 - y28_48 - y36_61 - y59_63 - y5_55 - y9_53 - y48_53 - y21_45 - y40_58 - y10_17 - y6_65 - y39_62 - y12_63 - y32_50 - y22_27 - y1_53 - y35_64 - y16_60 - y17_25 - y36_38 - y28_43 - y6_15 - y9_48 - y5_59 - y28_61 - y58_62 - y21_22 - y21_31 - y29_44 - y21_49 - y2_17 - y54_55 - y2_35 - y32_36 - y24_32 - y51_58 - y13_41 - y43_54 - y16_37 - y35_50 - y32_63 - y43_63 - y13_59 - y16_55 - y9_25 - y36_51 - y9_34 - y6_19 - y9_52 - y27_60 - y50_62 - y39_43 - y10_16 - y31_57 - y54_59 - y2_30 - y4_49 - y12_62 - y13_27 - y35_36 - y32_49 - y1_43 - y24_45 - y32_58 - y43_58 - y17_24 - y36_37 - y28_33 - y9_29 - y9_38 - y9_47 - y5_58 - y6_32 - y8_60 - y0_56 - y0_65 - y10_11 - y11_65 - y20_43 - y39_56 - y12_39 - y2_16 - y12_48 - y23_57 - y13_31 - y43_44 - y24_49 - y16_45 - y1_56 - y35_58 - y16_54 - y49_60 - y9_33 - y6_18 - y42_48 - y42_57 - y20_29 - y23_34 - y2_11 - y20_47 - y31_56 - y4_39 - y1_24 - y13_26 - y24_26 - y1_33 - y1_42 - y24_44 - y38_46 - y9_19 - y49_55 - y9_28 - y15_62 - y5_39 - y27_36 - y6_13 - y8_41 - y30_41 - y27_54 - y11_37 - y8_50 - y30_50 - y8_59 - y19_59 - y20_24 - y30_59 - y39_46 - y20_51 - y12_47 - y23_47 - y23_56 - y1_19 - y53_57 - y4_52 - y16_17 - y1_28 - y24_30 - y16_26 - y38_41 - y5_16 - y9_14 - y26_48 - y46_63 - y7_44 - y49_50 - y26_57 - y49_59 - y27_31 - y7_62 - y8_45 - y11_41 - y8_54 - y11_50 - y19_63 - y30_63 - y11_59 - y12_24 - y41_60 - y52_60 - y12_33 - y33_65 - y23_42 - y1_5 - y4_38 - y13_16 - y45_48 - y1_23 - y24_25 - y34_57 - y3_51 - y16_30 - y14_60 - y15_34 - y26_43 - y38_45 - y57_58 - y7_39 - y26_52 - y49_54 - y7_48 - y8_13 - y38_63 - y18_57 - y30_40 - y27_53 - y0_36 - y41_46 - y20_23 - y4_6 - y11_54 - y20_32 - y52_64 - y44_60 - y12_37 - y2_63 - y34_43 - y1_18 - y22_50 - y3_46 - y22_59 - y3_64 - y15_29 - y5_6 - y18_34 - y18_43 - y18_52 - y26_65 - y0_13 - y8_26 - y11_22 - y29_58 - y8_44 - y0_40 - y11_40 - y11_49 - y4_10 - y33_46 - y12_23 - y44_46 - y10_53 - y44_55 - y1_4 - y2_58 - y25_60 - y34_38 - y45_47 - y37_43 - y34_56 - y45_56 - y22_63 - y37_61 - y7_20 - y18_38 - y26_51 - y18_47 - y11_17 - y29_53 - y8_30 - y19_30 - y40_53 - y63_64 - y21_58 - y41_54 - y25_37 - y52_54 - y10_48 - y44_50 - y52_63 - y25_46 - y10_57 - y2_53 - y25_55 - y22_31 - y2_62 - y14_27 - y25_64 - y14_36 - y34_51 - y45_51 - y3_45 - y22_58 - y37_56 - y15_19 - y3_63 - y7_24 - y18_33 - y26_46 - y7_42 - y29_48 - y40_48 - y21_44 - y11_21 - y29_57 - y40_57 - y6_64 - y4_9 - y44_45 - y52_58 - y2_39 - y33_54 - y33_63 - y44_63 - y2_57 - y14_22 - y3_31 - y22_44 - y3_40 - y22_53 - y14_49 - y36_55 - y26_32 - y28_51 - y7_28 - y48_56 - y21_39 - y0_16 - y10_20 - y25_36 - y3_8 - y25_54 - y14_26 - y32_62 - y14_35 - y3_44 - y14_44 - y16_63 - y36_41 - y7_14 - y7_23 - y9_42 - y18_23 - y28_55 - y36_59 - y47_59 - y5_62 - y28_64 - y0_2 - y6_45 - y29_47 - y29_56 - y6_63 - y33_35 - y10_42 - y33_44 - y25_40 - y51_52 - y3_21 - y14_30 - y1_60 - y24_62 - y35_62 - y16_58 - y36_45 - y28_41 - y28_50 - y28_59 - y58_60 - y29_33 - y21_29 - y50_65 - y29_51 - y2_6 - y10_19 - y39_55 - y20_60 - y31_60 - y2_33 - y25_35 - y12_65 - y13_39 - y24_39 - y24_48 - y3_25 - y14_25 - y35_57 - y16_53 - y1_64 - y9_23 - y17_36 - y28_36 - y36_49 - y6_8 - y36_58 - y5_52 - y6_26 - y58_64 - y29_37 - y21_42 - y10_14 - y2_19 - y10_32 - y31_64 - y23_60 - y13_34 - y51_60 - y13_43 - y24_43 - y43_56 - y32_65 - y16_48 - y24_61 - y16_57 - y9_18 - y9_27 - y17_49 - y9_54 - y6_30 - y42_51 - y42_60 - y39_45 - y20_41 - y31_41 - y39_54 - y31_50 - y62_65 - y12_46 - y31_59 - y4_51 - y12_64 - y1_27 - y4_60 - y51_55 - y43_51 - y16_43 - y13_56 - y5_15 - y9_13 - y17_26 - y9_22 - y38_58 - y5_42 - y28_44 - y21_23 - y27_57 - y8_62 - y11_58 - y39_40 - y2_9 - y31_45 - y12_50 - y20_63 - y31_63 - y12_59 - y4_55 - y16_20 - y32_37 - y1_31 - y1_49 - y16_47 - y46_48 - y17_21 - y38_53 - y17_30 - y28_30 - y9_26 - y15_60 - y7_65 - y30_39 - y8_48 - y42_50 - y50_63 - y11_44 - y20_22 - y0_53 - y20_31 - y0_62 - y11_62 - y39_44 - y4_23 - y23_36 - y20_49 - y1_8 - y20_58 - y12_54 - y53_55 - y4_59 - y34_60 - y5_14 - y46_61 - y9_21 - y26_55 - y49_57 - y7_51 - y27_38 - y8_34 - y30_34 - y30_43 - y42_45 - y30_52 - y27_65 - y12_13 - y19_61 - y0_57 - y11_57 - y23_31 - y20_44 - y4_27 - y31_44 - y1_3 - y4_36 - y12_49 - y4_45 - y34_46 - y1_21 - y53_59 - y1_30 - y37_51 - y16_28 - y22_62 - y56_64 - y37_60 - y5_9 - y26_41 - y5_18 - y9_16 - y18_55 - y8_20 - y19_20 - y27_33 - y7_64 - y19_29 - y19_38 - y30_38 - y11_34 - y42_49 - y19_56 - y41_62 - y31_39 - y33_58 - y12_35 - y23_35 - y4_31 - y23_44 - y1_7 - y1_16 - y34_50 - y45_50 - y53_63 - y22_57 - y56_59 - y14_53 - y38_47 - y7_41 - y7_50 - y8_15 - y26_63 - y8_24 - y48_60 - y0_29 - y8_42 - y30_42 - y0_38 - y11_38 - y30_51 - y11_47 - y41_48 - y33_53 - y23_30 - y1_2 - y22_34 - y2_65 - y1_20 - y3_39 - y14_39 - y34_54 - y3_48 - y14_48 - y22_61 - y34_63 - y56_63 - y37_59 - y7_27 - y26_40 - y26_49 - y18_45 - y26_58 - y0_6 - y18_54 - y0_15 - y11_24 - y40_60 - y21_56 - y11_33 - y41_43 - y33_39 - y41_52 - y4_12 - y33_48 - y44_48 - y2_51 - y22_29 - y1_6 - y22_38 - y45_49 - y45_58 - y56_58 - y15_17 - y22_65 - y7_13 - y14_61 - y7_40 - y18_40 - y18_49 - y48_50 - y8_23 - y19_23 - y6_53 - y11_19 - y30_32 - y21_51 - y40_55 - y6_62 - y33_34 - y41_47 - y52_56 - y25_39 - y10_50 - y33_52 - y41_65 - y22_24 - y3_20 - y14_20 - y2_64 - y3_29 - y22_42 - y3_38 - y37_40 - y14_47
 Subject to
C1: x0+x1 <=1 
C2: x0+x2-y0_2 <=1 
C3: x0+x5-y0_5 <=1 
C4: x0+x6-y0_6 <=1 
C5: x0+x9 <=1 
C6: x0+x13-y0_13 <=1 
C7: x0+x14-y0_14 <=1 
C8: x0+x15-y0_15 <=1 
C9: x0+x16-y0_16 <=1 
C10: x0+x23 <=1 
C11: x0+x25 <=1 
C12: x0+x26 <=1 
C13: x0+x27 <=1 
C14: x0+x29-y0_29 <=1 
C15: x0+x34 <=1 
C16: x0+x36-y0_36 <=1 
C17: x0+x38-y0_38 <=1 
C18: x0+x40-y0_40 <=1 
C19: x0+x41 <=1 
C20: x0+x45 <=1 
C21: x0+x48 <=1 
C22: x0+x50 <=1 
C23: x0+x52 <=1 
C24: x0+x53-y0_53 <=1 
C25: x0+x56-y0_56 <=1 
C26: x0+x57-y0_57 <=1 
C27: x0+x61 <=1 
C28: x0+x62-y0_62 <=1 
C29: x0+x63 <=1 
C30: x0+x65-y0_65 <=1 
C31: x1+x2-y1_2 <=1 
C32: x1+x3-y1_3 <=1 
C33: x1+x4-y1_4 <=1 
C34: x1+x5-y1_5 <=1 
C35: x1+x6-y1_6 <=1 
C36: x1+x7-y1_7 <=1 
C37: x1+x8-y1_8 <=1 
C38: x1+x10 <=1 
C39: x1+x11 <=1 
C40: x1+x12 <=1 
C41: x1+x16-y1_16 <=1 
C42: x1+x18-y1_18 <=1 
C43: x1+x19-y1_19 <=1 
C44: x1+x20-y1_20 <=1 
C45: x1+x21-y1_21 <=1 
C46: x1+x22 <=1 
C47: x1+x23-y1_23 <=1 
C48: x1+x24-y1_24 <=1 
C49: x1+x27-y1_27 <=1 
C50: x1+x28-y1_28 <=1 
C51: x1+x30-y1_30 <=1 
C52: x1+x31-y1_31 <=1 
C53: x1+x32 <=1 
C54: x1+x33-y1_33 <=1 
C55: x1+x36 <=1 
C56: x1+x37 <=1 
C57: x1+x41 <=1 
C58: x1+x42-y1_42 <=1 
C59: x1+x43-y1_43 <=1 
C60: x1+x44 <=1 
C61: x1+x48 <=1 
C62: x1+x49-y1_49 <=1 
C63: x1+x50 <=1 
C64: x1+x53-y1_53 <=1 
C65: x1+x56-y1_56 <=1 
C66: x1+x60-y1_60 <=1 
C67: x1+x62 <=1 
C68: x1+x63 <=1 
C69: x1+x64-y1_64 <=1 
C70: x2+x3 <=1 
C71: x2+x6-y2_6 <=1 
C72: x2+x9-y2_9 <=1 
C73: x2+x10 <=1 
C74: x2+x11-y2_11 <=1 
C75: x2+x13 <=1 
C76: x2+x14 <=1 
C77: x2+x16-y2_16 <=1 
C78: x2+x17-y2_17 <=1 
C79: x2+x18 <=1 
C80: x2+x19-y2_19 <=1 
C81: x2+x20 <=1 
C82: x2+x23 <=1 
C83: x2+x25 <=1 
C84: x2+x27 <=1 
C85: x2+x29 <=1 
C86: x2+x30-y2_30 <=1 
C87: x2+x32-y2_32 <=1 
C88: x2+x33-y2_33 <=1 
C89: x2+x35-y2_35 <=1 
C90: x2+x36 <=1 
C91: x2+x37 <=1 
C92: x2+x39-y2_39 <=1 
C93: x2+x41 <=1 
C94: x2+x44 <=1 
C95: x2+x45 <=1 
C96: x2+x46 <=1 
C97: x2+x47 <=1 
C98: x2+x49 <=1 
C99: x2+x50 <=1 
C100: x2+x51-y2_51 <=1 
C101: x2+x53-y2_53 <=1 
C102: x2+x54 <=1 
C103: x2+x56 <=1 
C104: x2+x57-y2_57 <=1 
C105: x2+x58-y2_58 <=1 
C106: x2+x60 <=1 
C107: x2+x62-y2_62 <=1 
C108: x2+x63-y2_63 <=1 
C109: x2+x64-y2_64 <=1 
C110: x2+x65-y2_65 <=1 
C111: x3+x6 <=1 
C112: x3+x8-y3_8 <=1 
C113: x3+x9 <=1 
C114: x3+x11 <=1 
C115: x3+x13 <=1 
C116: x3+x14 <=1 
C117: x3+x15-y3_15 <=1 
C118: x3+x19 <=1 
C119: x3+x20-y3_20 <=1 
C120: x3+x21-y3_21 <=1 
C121: x3+x22 <=1 
C122: x3+x25-y3_25 <=1 
C123: x3+x27 <=1 
C124: x3+x28-y3_28 <=1 
C125: x3+x29-y3_29 <=1 
C126: x3+x31-y3_31 <=1 
C127: x3+x33 <=1 
C128: x3+x34 <=1 
C129: x3+x38-y3_38 <=1 
C130: x3+x39-y3_39 <=1 
C131: x3+x40-y3_40 <=1 
C132: x3+x41 <=1 
C133: x3+x42-y3_42 <=1 
C134: x3+x44-y3_44 <=1 
C135: x3+x45-y3_45 <=1 
C136: x3+x46-y3_46 <=1 
C137: x3+x48-y3_48 <=1 
C138: x3+x49 <=1 
C139: x3+x51-y3_51 <=1 
C140: x3+x52 <=1 
C141: x3+x53 <=1 
C142: x3+x60 <=1 
C143: x3+x63-y3_63 <=1 
C144: x3+x64-y3_64 <=1 
C145: x3+x65 <=1 
C146: x4+x6-y4_6 <=1 
C147: x4+x8 <=1 
C148: x4+x9-y4_9 <=1 
C149: x4+x10-y4_10 <=1 
C150: x4+x12-y4_12 <=1 
C151: x4+x15 <=1 
C152: x4+x18 <=1 
C153: x4+x19 <=1 
C154: x4+x20 <=1 
C155: x4+x23-y4_23 <=1 
C156: x4+x24 <=1 
C157: x4+x25 <=1 
C158: x4+x27-y4_27 <=1 
C159: x4+x29 <=1 
C160: x4+x31-y4_31 <=1 
C161: x4+x34 <=1 
C162: x4+x36-y4_36 <=1 
C163: x4+x38-y4_38 <=1 
C164: x4+x39-y4_39 <=1 
C165: x4+x41 <=1 
C166: x4+x42 <=1 
C167: x4+x44 <=1 
C168: x4+x45-y4_45 <=1 
C169: x4+x47 <=1 
C170: x4+x49-y4_49 <=1 
C171: x4+x50 <=1 
C172: x4+x51-y4_51 <=1 
C173: x4+x52-y4_52 <=1 
C174: x4+x55-y4_55 <=1 
C175: x4+x58 <=1 
C176: x4+x59-y4_59 <=1 
C177: x4+x60-y4_60 <=1 
C178: x4+x61 <=1 
C179: x5+x6-y5_6 <=1 
C180: x5+x8 <=1 
C181: x5+x9-y5_9 <=1 
C182: x5+x12 <=1 
C183: x5+x14-y5_14 <=1 
C184: x5+x15-y5_15 <=1 
C185: x5+x16-y5_16 <=1 
C186: x5+x18-y5_18 <=1 
C187: x5+x19 <=1 
C188: x5+x20 <=1 
C189: x5+x21 <=1 
C190: x5+x25 <=1 
C191: x5+x27 <=1 
C192: x5+x29 <=1 
C193: x5+x30 <=1 
C194: x5+x31 <=1 
C195: x5+x34 <=1 
C196: x5+x35 <=1 
C197: x5+x38 <=1 
C198: x5+x39-y5_39 <=1 
C199: x5+x40 <=1 
C200: x5+x42-y5_42 <=1 
C201: x5+x43 <=1 
C202: x5+x45 <=1 
C203: x5+x46 <=1 
C204: x5+x47 <=1 
C205: x5+x48 <=1 
C206: x5+x50 <=1 
C207: x5+x52-y5_52 <=1 
C208: x5+x53 <=1 
C209: x5+x54 <=1 
C210: x5+x55-y5_55 <=1 
C211: x5+x57 <=1 
C212: x5+x58-y5_58 <=1 
C213: x5+x59-y5_59 <=1 
C214: x5+x60-y5_60 <=1 
C215: x5+x62-y5_62 <=1 
C216: x5+x63 <=1 
C217: x5+x64 <=1 
C218: x5+x65-y5_65 <=1 
C219: x6+x8-y6_8 <=1 
C220: x6+x10 <=1 
C221: x6+x13-y6_13 <=1 
C222: x6+x15-y6_15 <=1 
C223: x6+x16 <=1 
C224: x6+x18-y6_18 <=1 
C225: x6+x19-y6_19 <=1 
C226: x6+x23 <=1 
C227: x6+x26-y6_26 <=1 
C228: x6+x27 <=1 
C229: x6+x30-y6_30 <=1 
C230: x6+x32-y6_32 <=1 
C231: x6+x36 <=1 
C232: x6+x37 <=1 
C233: x6+x38 <=1 
C234: x6+x39 <=1 
C235: x6+x40 <=1 
C236: x6+x41 <=1 
C237: x6+x42 <=1 
C238: x6+x43 <=1 
C239: x6+x45-y6_45 <=1 
C240: x6+x48 <=1 
C241: x6+x53-y6_53 <=1 
C242: x6+x59 <=1 
C243: x6+x62-y6_62 <=1 
C244: x6+x63-y6_63 <=1 
C245: x6+x64-y6_64 <=1 
C246: x6+x65-y6_65 <=1 
C247: x7+x8 <=1 
C248: x7+x9 <=1 
C249: x7+x10 <=1 
C250: x7+x12 <=1 
C251: x7+x13-y7_13 <=1 
C252: x7+x14-y7_14 <=1 
C253: x7+x17 <=1 
C254: x7+x18 <=1 
C255: x7+x20-y7_20 <=1 
C256: x7+x21-y7_21 <=1 
C257: x7+x23-y7_23 <=1 
C258: x7+x24-y7_24 <=1 
C259: x7+x25 <=1 
C260: x7+x27-y7_27 <=1 
C261: x7+x28-y7_28 <=1 
C262: x7+x29 <=1 
C263: x7+x31 <=1 
C264: x7+x32 <=1 
C265: x7+x34 <=1 
C266: x7+x36 <=1 
C267: x7+x39-y7_39 <=1 
C268: x7+x40-y7_40 <=1 
C269: x7+x41-y7_41 <=1 
C270: x7+x42-y7_42 <=1 
C271: x7+x44-y7_44 <=1 
C272: x7+x48-y7_48 <=1 
C273: x7+x49 <=1 
C274: x7+x50-y7_50 <=1 
C275: x7+x51-y7_51 <=1 
C276: x7+x56 <=1 
C277: x7+x57 <=1 
C278: x7+x58 <=1 
C279: x7+x60 <=1 
C280: x7+x61 <=1 
C281: x7+x62-y7_62 <=1 
C282: x7+x64-y7_64 <=1 
C283: x7+x65-y7_65 <=1 
C284: x8+x9-y8_9 <=1 
C285: x8+x10 <=1 
C286: x8+x13-y8_13 <=1 
C287: x8+x15-y8_15 <=1 
C288: x8+x18-y8_18 <=1 
C289: x8+x20-y8_20 <=1 
C290: x8+x21 <=1 
C291: x8+x23-y8_23 <=1 
C292: x8+x24-y8_24 <=1 
C293: x8+x26-y8_26 <=1 
C294: x8+x30-y8_30 <=1 
C295: x8+x33 <=1 
C296: x8+x34-y8_34 <=1 
C297: x8+x37 <=1 
C298: x8+x38 <=1 
C299: x8+x40 <=1 
C300: x8+x41-y8_41 <=1 
C301: x8+x42-y8_42 <=1 
C302: x8+x44-y8_44 <=1 
C303: x8+x45-y8_45 <=1 
C304: x8+x48-y8_48 <=1 
C305: x8+x50-y8_50 <=1 
C306: x8+x51 <=1 
C307: x8+x52 <=1 
C308: x8+x53 <=1 
C309: x8+x54-y8_54 <=1 
C310: x8+x56 <=1 
C311: x8+x57 <=1 
C312: x8+x58 <=1 
C313: x8+x59-y8_59 <=1 
C314: x8+x60-y8_60 <=1 
C315: x8+x62-y8_62 <=1 
C316: x8+x63 <=1 
C317: x8+x64 <=1 
C318: x9+x13-y9_13 <=1 
C319: x9+x14-y9_14 <=1 
C320: x9+x16-y9_16 <=1 
C321: x9+x17 <=1 
C322: x9+x18-y9_18 <=1 
C323: x9+x19-y9_19 <=1 
C324: x9+x20 <=1 
C325: x9+x21-y9_21 <=1 
C326: x9+x22-y9_22 <=1 
C327: x9+x23-y9_23 <=1 
C328: x9+x25-y9_25 <=1 
C329: x9+x26-y9_26 <=1 
C330: x9+x27-y9_27 <=1 
C331: x9+x28-y9_28 <=1 
C332: x9+x29-y9_29 <=1 
C333: x9+x31 <=1 
C334: x9+x32 <=1 
C335: x9+x33-y9_33 <=1 
C336: x9+x34-y9_34 <=1 
C337: x9+x35 <=1 
C338: x9+x37 <=1 
C339: x9+x38-y9_38 <=1 
C340: x9+x39 <=1 
C341: x9+x40 <=1 
C342: x9+x42-y9_42 <=1 
C343: x9+x43 <=1 
C344: x9+x45 <=1 
C345: x9+x46 <=1 
C346: x9+x47-y9_47 <=1 
C347: x9+x48-y9_48 <=1 
C348: x9+x52-y9_52 <=1 
C349: x9+x53-y9_53 <=1 
C350: x9+x54-y9_54 <=1 
C351: x9+x55 <=1 
C352: x9+x57 <=1 
C353: x9+x58 <=1 
C354: x9+x62 <=1 
C355: x10+x11-y10_11 <=1 
C356: x10+x14-y10_14 <=1 
C357: x10+x15 <=1 
C358: x10+x16-y10_16 <=1 
C359: x10+x17-y10_17 <=1 
C360: x10+x19-y10_19 <=1 
C361: x10+x20-y10_20 <=1 
C362: x10+x22 <=1 
C363: x10+x23 <=1 
C364: x10+x24 <=1 
C365: x10+x28 <=1 
C366: x10+x30 <=1 
C367: x10+x32-y10_32 <=1 
C368: x10+x33 <=1 
C369: x10+x35 <=1 
C370: x10+x37 <=1 
C371: x10+x40-y10_40 <=1 
C372: x10+x42-y10_42 <=1 
C373: x10+x43 <=1 
C374: x10+x45-y10_45 <=1 
C375: x10+x48-y10_48 <=1 
C376: x10+x50-y10_50 <=1 
C377: x10+x53-y10_53 <=1 
C378: x10+x56 <=1 
C379: x10+x57-y10_57 <=1 
C380: x10+x58-y10_58 <=1 
C381: x10+x60 <=1 
C382: x10+x63 <=1 
C383: x10+x64 <=1 
C384: x10+x65 <=1 
C385: x11+x12 <=1 
C386: x11+x14 <=1 
C387: x11+x16 <=1 
C388: x11+x17-y11_17 <=1 
C389: x11+x19-y11_19 <=1 
C390: x11+x21-y11_21 <=1 
C391: x11+x22-y11_22 <=1 
C392: x11+x23-y11_23 <=1 
C393: x11+x24-y11_24 <=1 
C394: x11+x25 <=1 
C395: x11+x27 <=1 
C396: x11+x33-y11_33 <=1 
C397: x11+x34-y11_34 <=1 
C398: x11+x35 <=1 
C399: x11+x36 <=1 
C400: x11+x37-y11_37 <=1 
C401: x11+x38-y11_38 <=1 
C402: x11+x39 <=1 
C403: x11+x40-y11_40 <=1 
C404: x11+x41-y11_41 <=1 
C405: x11+x44-y11_44 <=1 
C406: x11+x47-y11_47 <=1 
C407: x11+x49-y11_49 <=1 
C408: x11+x50-y11_50 <=1 
C409: x11+x51 <=1 
C410: x11+x53 <=1 
C411: x11+x54-y11_54 <=1 
C412: x11+x56 <=1 
C413: x11+x57-y11_57 <=1 
C414: x11+x58-y11_58 <=1 
C415: x11+x59-y11_59 <=1 
C416: x11+x60 <=1 
C417: x11+x61 <=1 
C418: x11+x62-y11_62 <=1 
C419: x11+x64 <=1 
C420: x11+x65-y11_65 <=1 
C421: x12+x13-y12_13 <=1 
C422: x12+x14 <=1 
C423: x12+x16 <=1 
C424: x12+x18 <=1 
C425: x12+x19 <=1 
C426: x12+x20 <=1 
C427: x12+x21 <=1 
C428: x12+x22 <=1 
C429: x12+x23-y12_23 <=1 
C430: x12+x24-y12_24 <=1 
C431: x12+x27 <=1 
C432: x12+x28 <=1 
C433: x12+x30 <=1 
C434: x12+x31 <=1 
C435: x12+x32 <=1 
C436: x12+x33-y12_33 <=1 
C437: x12+x34 <=1 
C438: x12+x35-y12_35 <=1 
C439: x12+x37-y12_37 <=1 
C440: x12+x39-y12_39 <=1 
C441: x12+x42 <=1 
C442: x12+x44 <=1 
C443: x12+x45 <=1 
C444: x12+x46-y12_46 <=1 
C445: x12+x47-y12_47 <=1 
C446: x12+x48-y12_48 <=1 
C447: x12+x49-y12_49 <=1 
C448: x12+x50-y12_50 <=1 
C449: x12+x54-y12_54 <=1 
C450: x12+x55 <=1 
C451: x12+x59-y12_59 <=1 
C452: x12+x62-y12_62 <=1 
C453: x12+x63-y12_63 <=1 
C454: x12+x64-y12_64 <=1 
C455: x12+x65-y12_65 <=1 
C456: x13+x16-y13_16 <=1 
C457: x13+x17 <=1 
C458: x13+x20 <=1 
C459: x13+x21 <=1 
C460: x13+x23 <=1 
C461: x13+x25 <=1 
C462: x13+x26-y13_26 <=1 
C463: x13+x27-y13_27 <=1 
C464: x13+x29 <=1 
C465: x13+x31-y13_31 <=1 
C466: x13+x34-y13_34 <=1 
C467: x13+x37 <=1 
C468: x13+x39-y13_39 <=1 
C469: x13+x41-y13_41 <=1 
C470: x13+x43-y13_43 <=1 
C471: x13+x50 <=1 
C472: x13+x51 <=1 
C473: x13+x54 <=1 
C474: x13+x56-y13_56 <=1 
C475: x13+x59-y13_59 <=1 
C476: x13+x62 <=1 
C477: x13+x64 <=1 
C478: x14+x15-y14_15 <=1 
C479: x14+x16 <=1 
C480: x14+x18 <=1 
C481: x14+x19-y14_19 <=1 
C482: x14+x20-y14_20 <=1 
C483: x14+x22-y14_22 <=1 
C484: x14+x24-y14_24 <=1 
C485: x14+x25-y14_25 <=1 
C486: x14+x26-y14_26 <=1 
C487: x14+x27-y14_27 <=1 
C488: x14+x28 <=1 
C489: x14+x30-y14_30 <=1 
C490: x14+x31 <=1 
C491: x14+x33-y14_33 <=1 
C492: x14+x35-y14_35 <=1 
C493: x14+x36-y14_36 <=1 
C494: x14+x39-y14_39 <=1 
C495: x14+x40 <=1 
C496: x14+x41 <=1 
C497: x14+x42-y14_42 <=1 
C498: x14+x44-y14_44 <=1 
C499: x14+x46 <=1 
C500: x14+x47-y14_47 <=1 
C501: x14+x48-y14_48 <=1 
C502: x14+x49-y14_49 <=1 
C503: x14+x51 <=1 
C504: x14+x53-y14_53 <=1 
C505: x14+x54 <=1 
C506: x14+x55 <=1 
C507: x14+x59 <=1 
C508: x14+x60-y14_60 <=1 
C509: x14+x61-y14_61 <=1 
C510: x14+x64 <=1 
C511: x14+x65 <=1 
C512: x15+x16 <=1 
C513: x15+x17-y15_17 <=1 
C514: x15+x18 <=1 
C515: x15+x19-y15_19 <=1 
C516: x15+x21-y15_21 <=1 
C517: x15+x22 <=1 
C518: x15+x23 <=1 
C519: x15+x24 <=1 
C520: x15+x25-y15_25 <=1 
C521: x15+x26 <=1 
C522: x15+x28 <=1 
C523: x15+x29-y15_29 <=1 
C524: x15+x30 <=1 
C525: x15+x34-y15_34 <=1 
C526: x15+x36 <=1 
C527: x15+x38 <=1 
C528: x15+x40 <=1 
C529: x15+x47 <=1 
C530: x15+x48 <=1 
C531: x15+x50 <=1 
C532: x15+x51 <=1 
C533: x15+x52 <=1 
C534: x15+x53 <=1 
C535: x15+x55 <=1 
C536: x15+x60-y15_60 <=1 
C537: x15+x62-y15_62 <=1 
C538: x15+x63 <=1 
C539: x15+x64 <=1 
C540: x15+x65 <=1 
C541: x16+x17-y16_17 <=1 
C542: x16+x18 <=1 
C543: x16+x19 <=1 
C544: x16+x20-y16_20 <=1 
C545: x16+x21 <=1 
C546: x16+x22 <=1 
C547: x16+x23 <=1 
C548: x16+x26-y16_26 <=1 
C549: x16+x28-y16_28 <=1 
C550: x16+x30-y16_30 <=1 
C551: x16+x31 <=1 
C552: x16+x35 <=1 
C553: x16+x37-y16_37 <=1 
C554: x16+x38 <=1 
C555: x16+x43-y16_43 <=1 
C556: x16+x45-y16_45 <=1 
C557: x16+x47-y16_47 <=1 
C558: x16+x48-y16_48 <=1 
C559: x16+x50 <=1 
C560: x16+x51 <=1 
C561: x16+x53-y16_53 <=1 
C562: x16+x54-y16_54 <=1 
C563: x16+x55-y16_55 <=1 
C564: x16+x57-y16_57 <=1 
C565: x16+x58-y16_58 <=1 
C566: x16+x59 <=1 
C567: x16+x60-y16_60 <=1 
C568: x16+x61 <=1 
C569: x16+x63-y16_63 <=1 
C570: x16+x64 <=1 
C571: x16+x65-y16_65 <=1 
C572: x17+x19 <=1 
C573: x17+x21-y17_21 <=1 
C574: x17+x24-y17_24 <=1 
C575: x17+x25-y17_25 <=1 
C576: x17+x26-y17_26 <=1 
C577: x17+x28 <=1 
C578: x17+x29 <=1 
C579: x17+x30-y17_30 <=1 
C580: x17+x35 <=1 
C581: x17+x36-y17_36 <=1 
C582: x17+x38 <=1 
C583: x17+x39-y17_39 <=1 
C584: x17+x43 <=1 
C585: x17+x44 <=1 
C586: x17+x47 <=1 
C587: x17+x48 <=1 
C588: x17+x49-y17_49 <=1 
C589: x17+x51 <=1 
C590: x17+x53-y17_53 <=1 
C591: x17+x57 <=1 
C592: x17+x58-y17_58 <=1 
C593: x17+x64 <=1 
C594: x18+x22 <=1 
C595: x18+x23-y18_23 <=1 
C596: x18+x24 <=1 
C597: x18+x26 <=1 
C598: x18+x30-y18_30 <=1 
C599: x18+x31 <=1 
C600: x18+x32 <=1 
C601: x18+x33-y18_33 <=1 
C602: x18+x34-y18_34 <=1 
C603: x18+x36 <=1 
C604: x18+x38-y18_38 <=1 
C605: x18+x40-y18_40 <=1 
C606: x18+x41 <=1 
C607: x18+x43-y18_43 <=1 
C608: x18+x44-y18_44 <=1 
C609: x18+x45-y18_45 <=1 
C610: x18+x46 <=1 
C611: x18+x47-y18_47 <=1 
C612: x18+x49-y18_49 <=1 
C613: x18+x52-y18_52 <=1 
C614: x18+x53 <=1 
C615: x18+x54-y18_54 <=1 
C616: x18+x55-y18_55 <=1 
C617: x18+x56 <=1 
C618: x18+x57-y18_57 <=1 
C619: x18+x59 <=1 
C620: x18+x61 <=1 
C621: x18+x63 <=1 
C622: x18+x64 <=1 
C623: x19+x20-y19_20 <=1 
C624: x19+x22 <=1 
C625: x19+x23-y19_23 <=1 
C626: x19+x26 <=1 
C627: x19+x28 <=1 
C628: x19+x29-y19_29 <=1 
C629: x19+x30-y19_30 <=1 
C630: x19+x32 <=1 
C631: x19+x36 <=1 
C632: x19+x38-y19_38 <=1 
C633: x19+x40 <=1 
C634: x19+x41 <=1 
C635: x19+x42 <=1 
C636: x19+x43 <=1 
C637: x19+x46 <=1 
C638: x19+x47 <=1 
C639: x19+x50 <=1 
C640: x19+x51 <=1 
C641: x19+x54 <=1 
C642: x19+x56-y19_56 <=1 
C643: x19+x57 <=1 
C644: x19+x58 <=1 
C645: x19+x59-y19_59 <=1 
C646: x19+x60 <=1 
C647: x19+x61-y19_61 <=1 
C648: x19+x62 <=1 
C649: x19+x63-y19_63 <=1 
C650: x20+x21 <=1 
C651: x20+x22-y20_22 <=1 
C652: x20+x23-y20_23 <=1 
C653: x20+x24-y20_24 <=1 
C654: x20+x25 <=1 
C655: x20+x26 <=1 
C656: x20+x27 <=1 
C657: x20+x29-y20_29 <=1 
C658: x20+x31-y20_31 <=1 
C659: x20+x32-y20_32 <=1 
C660: x20+x33 <=1 
C661: x20+x35 <=1 
C662: x20+x41-y20_41 <=1 
C663: x20+x43-y20_43 <=1 
C664: x20+x44-y20_44 <=1 
C665: x20+x47-y20_47 <=1 
C666: x20+x49-y20_49 <=1 
C667: x20+x50 <=1 
C668: x20+x51-y20_51 <=1 
C669: x20+x54 <=1 
C670: x20+x58-y20_58 <=1 
C671: x20+x59 <=1 
C672: x20+x60-y20_60 <=1 
C673: x20+x62 <=1 
C674: x20+x63-y20_63 <=1 
C675: x21+x22-y21_22 <=1 
C676: x21+x23-y21_23 <=1 
C677: x21+x25 <=1 
C678: x21+x27 <=1 
C679: x21+x29-y21_29 <=1 
C680: x21+x30 <=1 
C681: x21+x31-y21_31 <=1 
C682: x21+x32 <=1 
C683: x21+x33 <=1 
C684: x21+x35 <=1 
C685: x21+x37-y21_37 <=1 
C686: x21+x38 <=1 
C687: x21+x39-y21_39 <=1 
C688: x21+x41-y21_41 <=1 
C689: x21+x42-y21_42 <=1 
C690: x21+x44-y21_44 <=1 
C691: x21+x45-y21_45 <=1 
C692: x21+x46-y21_46 <=1 
C693: x21+x48 <=1 
C694: x21+x49-y21_49 <=1 
C695: x21+x50 <=1 
C696: x21+x51-y21_51 <=1 
C697: x21+x53 <=1 
C698: x21+x55-y21_55 <=1 
C699: x21+x56-y21_56 <=1 
C700: x21+x57 <=1 
C701: x21+x58-y21_58 <=1 
C702: x21+x59 <=1 
C703: x22+x24-y22_24 <=1 
C704: x22+x25 <=1 
C705: x22+x26 <=1 
C706: x22+x27-y22_27 <=1 
C707: x22+x29-y22_29 <=1 
C708: x22+x31-y22_31 <=1 
C709: x22+x32-y22_32 <=1 
C710: x22+x34-y22_34 <=1 
C711: x22+x37-y22_37 <=1 
C712: x22+x38-y22_38 <=1 
C713: x22+x40 <=1 
C714: x22+x42-y22_42 <=1 
C715: x22+x43 <=1 
C716: x22+x44-y22_44 <=1 
C717: x22+x50-y22_50 <=1 
C718: x22+x51 <=1 
C719: x22+x53-y22_53 <=1 
C720: x22+x54 <=1 
C721: x22+x55 <=1 
C722: x22+x57-y22_57 <=1 
C723: x22+x58-y22_58 <=1 
C724: x22+x59-y22_59 <=1 
C725: x22+x61-y22_61 <=1 
C726: x22+x62-y22_62 <=1 
C727: x22+x63-y22_63 <=1 
C728: x22+x65-y22_65 <=1 
C729: x23+x25 <=1 
C730: x23+x26 <=1 
C731: x23+x28 <=1 
C732: x23+x30-y23_30 <=1 
C733: x23+x31-y23_31 <=1 
C734: x23+x32 <=1 
C735: x23+x33 <=1 
C736: x23+x34-y23_34 <=1 
C737: x23+x35-y23_35 <=1 
C738: x23+x36-y23_36 <=1 
C739: x23+x37 <=1 
C740: x23+x38 <=1 
C741: x23+x40 <=1 
C742: x23+x41 <=1 
C743: x23+x42-y23_42 <=1 
C744: x23+x44-y23_44 <=1 
C745: x23+x45 <=1 
C746: x23+x47-y23_47 <=1 
C747: x23+x48 <=1 
C748: x23+x49 <=1 
C749: x23+x50 <=1 
C750: x23+x53 <=1 
C751: x23+x55 <=1 
C752: x23+x56-y23_56 <=1 
C753: x23+x57-y23_57 <=1 
C754: x23+x58 <=1 
C755: x23+x60-y23_60 <=1 
C756: x23+x61 <=1 
C757: x23+x62 <=1 
C758: x23+x64 <=1 
C759: x24+x25-y24_25 <=1 
C760: x24+x26-y24_26 <=1 
C761: x24+x28 <=1 
C762: x24+x29 <=1 
C763: x24+x30-y24_30 <=1 
C764: x24+x32-y24_32 <=1 
C765: x24+x33 <=1 
C766: x24+x36 <=1 
C767: x24+x37 <=1 
C768: x24+x38 <=1 
C769: x24+x39-y24_39 <=1 
C770: x24+x40 <=1 
C771: x24+x43-y24_43 <=1 
C772: x24+x44-y24_44 <=1 
C773: x24+x45-y24_45 <=1 
C774: x24+x47 <=1 
C775: x24+x48-y24_48 <=1 
C776: x24+x49-y24_49 <=1 
C777: x24+x50 <=1 
C778: x24+x51 <=1 
C779: x24+x52 <=1 
C780: x24+x53 <=1 
C781: x24+x55 <=1 
C782: x24+x56 <=1 
C783: x24+x59 <=1 
C784: x24+x61-y24_61 <=1 
C785: x24+x62-y24_62 <=1 
C786: x24+x63 <=1 
C787: x24+x64 <=1 
C788: x24+x65 <=1 
C789: x25+x26 <=1 
C790: x25+x27 <=1 
C791: x25+x29 <=1 
C792: x25+x30 <=1 
C793: x25+x32 <=1 
C794: x25+x34 <=1 
C795: x25+x35-y25_35 <=1 
C796: x25+x36-y25_36 <=1 
C797: x25+x37-y25_37 <=1 
C798: x25+x38-y25_38 <=1 
C799: x25+x39-y25_39 <=1 
C800: x25+x40-y25_40 <=1 
C801: x25+x42 <=1 
C802: x25+x45 <=1 
C803: x25+x46-y25_46 <=1 
C804: x25+x48 <=1 
C805: x25+x49 <=1 
C806: x25+x51 <=1 
C807: x25+x53 <=1 
C808: x25+x54-y25_54 <=1 
C809: x25+x55-y25_55 <=1 
C810: x25+x58 <=1 
C811: x25+x59 <=1 
C812: x25+x60-y25_60 <=1 
C813: x25+x61-y25_61 <=1 
C814: x25+x62 <=1 
C815: x25+x63 <=1 
C816: x25+x64-y25_64 <=1 
C817: x25+x65 <=1 
C818: x26+x27 <=1 
C819: x26+x30-y26_30 <=1 
C820: x26+x31 <=1 
C821: x26+x32-y26_32 <=1 
C822: x26+x33 <=1 
C823: x26+x34 <=1 
C824: x26+x37 <=1 
C825: x26+x38 <=1 
C826: x26+x39 <=1 
C827: x26+x40-y26_40 <=1 
C828: x26+x41-y26_41 <=1 
C829: x26+x43-y26_43 <=1 
C830: x26+x44 <=1 
C831: x26+x46-y26_46 <=1 
C832: x26+x47 <=1 
C833: x26+x48-y26_48 <=1 
C834: x26+x49-y26_49 <=1 
C835: x26+x51-y26_51 <=1 
C836: x26+x52-y26_52 <=1 
C837: x26+x53 <=1 
C838: x26+x54 <=1 
C839: x26+x55-y26_55 <=1 
C840: x26+x56 <=1 
C841: x26+x57-y26_57 <=1 
C842: x26+x58-y26_58 <=1 
C843: x26+x60 <=1 
C844: x26+x63-y26_63 <=1 
C845: x26+x65-y26_65 <=1 
C846: x27+x29 <=1 
C847: x27+x31-y27_31 <=1 
C848: x27+x32 <=1 
C849: x27+x33-y27_33 <=1 
C850: x27+x36-y27_36 <=1 
C851: x27+x38-y27_38 <=1 
C852: x27+x40 <=1 
C853: x27+x41 <=1 
C854: x27+x42 <=1 
C855: x27+x46 <=1 
C856: x27+x48 <=1 
C857: x27+x49 <=1 
C858: x27+x50 <=1 
C859: x27+x52 <=1 
C860: x27+x53-y27_53 <=1 
C861: x27+x54-y27_54 <=1 
C862: x27+x57-y27_57 <=1 
C863: x27+x58 <=1 
C864: x27+x60-y27_60 <=1 
C865: x27+x64 <=1 
C866: x27+x65-y27_65 <=1 
C867: x28+x30-y28_30 <=1 
C868: x28+x33-y28_33 <=1 
C869: x28+x35 <=1 
C870: x28+x36-y28_36 <=1 
C871: x28+x37 <=1 
C872: x28+x38 <=1 
C873: x28+x39-y28_39 <=1 
C874: x28+x41-y28_41 <=1 
C875: x28+x43-y28_43 <=1 
C876: x28+x44-y28_44 <=1 
C877: x28+x45 <=1 
C878: x28+x47 <=1 
C879: x28+x48-y28_48 <=1 
C880: x28+x50-y28_50 <=1 
C881: x28+x51-y28_51 <=1 
C882: x28+x55-y28_55 <=1 
C883: x28+x59-y28_59 <=1 
C884: x28+x61-y28_61 <=1 
C885: x28+x62-y28_62 <=1 
C886: x28+x64-y28_64 <=1 
C887: x28+x65 <=1 
C888: x29+x30 <=1 
C889: x29+x31 <=1 
C890: x29+x32-y29_32 <=1 
C891: x29+x33-y29_33 <=1 
C892: x29+x34 <=1 
C893: x29+x35 <=1 
C894: x29+x36-y29_36 <=1 
C895: x29+x37-y29_37 <=1 
C896: x29+x38 <=1 
C897: x29+x40 <=1 
C898: x29+x41-y29_41 <=1 
C899: x29+x44-y29_44 <=1 
C900: x29+x45 <=1 
C901: x29+x46 <=1 
C902: x29+x47-y29_47 <=1 
C903: x29+x48-y29_48 <=1 
C904: x29+x51-y29_51 <=1 
C905: x29+x52 <=1 
C906: x29+x53-y29_53 <=1 
C907: x29+x54 <=1 
C908: x29+x56-y29_56 <=1 
C909: x29+x57-y29_57 <=1 
C910: x29+x58-y29_58 <=1 
C911: x29+x62 <=1 
C912: x29+x65 <=1 
C913: x30+x32-y30_32 <=1 
C914: x30+x33 <=1 
C915: x30+x34-y30_34 <=1 
C916: x30+x35 <=1 
C917: x30+x36 <=1 
C918: x30+x38-y30_38 <=1 
C919: x30+x39-y30_39 <=1 
C920: x30+x40-y30_40 <=1 
C921: x30+x41-y30_41 <=1 
C922: x30+x42-y30_42 <=1 
C923: x30+x43-y30_43 <=1 
C924: x30+x44 <=1 
C925: x30+x47 <=1 
C926: x30+x50-y30_50 <=1 
C927: x30+x51-y30_51 <=1 
C928: x30+x52-y30_52 <=1 
C929: x30+x54 <=1 
C930: x30+x55 <=1 
C931: x30+x58 <=1 
C932: x30+x59-y30_59 <=1 
C933: x30+x62 <=1 
C934: x30+x63-y30_63 <=1 
C935: x30+x65 <=1 
C936: x31+x38 <=1 
C937: x31+x39-y31_39 <=1 
C938: x31+x40 <=1 
C939: x31+x41-y31_41 <=1 
C940: x31+x43 <=1 
C941: x31+x44-y31_44 <=1 
C942: x31+x45-y31_45 <=1 
C943: x31+x49 <=1 
C944: x31+x50-y31_50 <=1 
C945: x31+x51 <=1 
C946: x31+x52 <=1 
C947: x31+x54 <=1 
C948: x31+x55 <=1 
C949: x31+x56-y31_56 <=1 
C950: x31+x57-y31_57 <=1 
C951: x31+x59-y31_59 <=1 
C952: x31+x60-y31_60 <=1 
C953: x31+x61 <=1 
C954: x31+x63-y31_63 <=1 
C955: x31+x64-y31_64 <=1 
C956: x32+x35 <=1 
C957: x32+x36-y32_36 <=1 
C958: x32+x37-y32_37 <=1 
C959: x32+x38 <=1 
C960: x32+x40 <=1 
C961: x32+x45 <=1 
C962: x32+x46 <=1 
C963: x32+x48 <=1 
C964: x32+x49-y32_49 <=1 
C965: x32+x50-y32_50 <=1 
C966: x32+x52 <=1 
C967: x32+x53 <=1 
C968: x32+x54 <=1 
C969: x32+x55-y32_55 <=1 
C970: x32+x58-y32_58 <=1 
C971: x32+x61 <=1 
C972: x32+x62-y32_62 <=1 
C973: x32+x63-y32_63 <=1 
C974: x32+x64-y32_64 <=1 
C975: x32+x65-y32_65 <=1 
C976: x33+x34-y33_34 <=1 
C977: x33+x35-y33_35 <=1 
C978: x33+x39-y33_39 <=1 
C979: x33+x43 <=1 
C980: x33+x44-y33_44 <=1 
C981: x33+x45 <=1 
C982: x33+x46-y33_46 <=1 
C983: x33+x48-y33_48 <=1 
C984: x33+x49 <=1 
C985: x33+x51 <=1 
C986: x33+x52-y33_52 <=1 
C987: x33+x53-y33_53 <=1 
C988: x33+x54-y33_54 <=1 
C989: x33+x56-y33_56 <=1 
C990: x33+x58-y33_58 <=1 
C991: x33+x61 <=1 
C992: x33+x63-y33_63 <=1 
C993: x33+x64 <=1 
C994: x33+x65-y33_65 <=1 
C995: x34+x35 <=1 
C996: x34+x36 <=1 
C997: x34+x37 <=1 
C998: x34+x38-y34_38 <=1 
C999: x34+x40 <=1 
C1000: x34+x42 <=1 
C1001: x34+x43-y34_43 <=1 
C1002: x34+x44 <=1 
C1003: x34+x46-y34_46 <=1 
C1004: x34+x48 <=1 
C1005: x34+x49 <=1 
C1006: x34+x50-y34_50 <=1 
C1007: x34+x51-y34_51 <=1 
C1008: x34+x53 <=1 
C1009: x34+x54-y34_54 <=1 
C1010: x34+x56-y34_56 <=1 
C1011: x34+x57-y34_57 <=1 
C1012: x34+x60-y34_60 <=1 
C1013: x34+x62 <=1 
C1014: x34+x63-y34_63 <=1 
C1015: x34+x64 <=1 
C1016: x35+x36-y35_36 <=1 
C1017: x35+x38 <=1 
C1018: x35+x43 <=1 
C1019: x35+x48 <=1 
C1020: x35+x50-y35_50 <=1 
C1021: x35+x52 <=1 
C1022: x35+x53 <=1 
C1023: x35+x54 <=1 
C1024: x35+x56 <=1 
C1025: x35+x57-y35_57 <=1 
C1026: x35+x58-y35_58 <=1 
C1027: x35+x60 <=1 
C1028: x35+x62-y35_62 <=1 
C1029: x35+x64-y35_64 <=1 
C1030: x36+x37-y36_37 <=1 
C1031: x36+x38-y36_38 <=1 
C1032: x36+x41-y36_41 <=1 
C1033: x36+x42 <=1 
C1034: x36+x43-y36_43 <=1 
C1035: x36+x44 <=1 
C1036: x36+x45-y36_45 <=1 
C1037: x36+x47 <=1 
C1038: x36+x48 <=1 
C1039: x36+x49-y36_49 <=1 
C1040: x36+x51-y36_51 <=1 
C1041: x36+x52 <=1 
C1042: x36+x55-y36_55 <=1 
C1043: x36+x58-y36_58 <=1 
C1044: x36+x59-y36_59 <=1 
C1045: x36+x60 <=1 
C1046: x36+x61-y36_61 <=1 
C1047: x36+x62 <=1 
C1048: x36+x64 <=1 
C1049: x37+x38 <=1 
C1050: x37+x40-y37_40 <=1 
C1051: x37+x43-y37_43 <=1 
C1052: x37+x47 <=1 
C1053: x37+x49 <=1 
C1054: x37+x51-y37_51 <=1 
C1055: x37+x52 <=1 
C1056: x37+x56-y37_56 <=1 
C1057: x37+x59-y37_59 <=1 
C1058: x37+x60-y37_60 <=1 
C1059: x37+x61-y37_61 <=1 
C1060: x37+x62 <=1 
C1061: x37+x65 <=1 
C1062: x38+x39 <=1 
C1063: x38+x41-y38_41 <=1 
C1064: x38+x45-y38_45 <=1 
C1065: x38+x46-y38_46 <=1 
C1066: x38+x47-y38_47 <=1 
C1067: x38+x48 <=1 
C1068: x38+x49 <=1 
C1069: x38+x50 <=1 
C1070: x38+x52 <=1 
C1071: x38+x53-y38_53 <=1 
C1072: x38+x55 <=1 
C1073: x38+x56 <=1 
C1074: x38+x57 <=1 
C1075: x38+x58-y38_58 <=1 
C1076: x38+x61 <=1 
C1077: x38+x62 <=1 
C1078: x38+x63-y38_63 <=1 
C1079: x38+x64 <=1 
C1080: x39+x40-y39_40 <=1 
C1081: x39+x43-y39_43 <=1 
C1082: x39+x44-y39_44 <=1 
C1083: x39+x45-y39_45 <=1 
C1084: x39+x46-y39_46 <=1 
C1085: x39+x48 <=1 
C1086: x39+x50 <=1 
C1087: x39+x52 <=1 
C1088: x39+x53 <=1 
C1089: x39+x54-y39_54 <=1 
C1090: x39+x55-y39_55 <=1 
C1091: x39+x56-y39_56 <=1 
C1092: x39+x58 <=1 
C1093: x39+x59 <=1 
C1094: x39+x61 <=1 
C1095: x39+x62-y39_62 <=1 
C1096: x39+x63 <=1 
C1097: x40+x43 <=1 
C1098: x40+x44 <=1 
C1099: x40+x45 <=1 
C1100: x40+x48-y40_48 <=1 
C1101: x40+x49 <=1 
C1102: x40+x50-y40_50 <=1 
C1103: x40+x51 <=1 
C1104: x40+x53-y40_53 <=1 
C1105: x40+x55-y40_55 <=1 
C1106: x40+x57-y40_57 <=1 
C1107: x40+x58-y40_58 <=1 
C1108: x40+x60-y40_60 <=1 
C1109: x40+x63-y40_63 <=1 
C1110: x40+x65 <=1 
C1111: x41+x42 <=1 
C1112: x41+x43-y41_43 <=1 
C1113: x41+x44 <=1 
C1114: x41+x46-y41_46 <=1 
C1115: x41+x47-y41_47 <=1 
C1116: x41+x48-y41_48 <=1 
C1117: x41+x49 <=1 
C1118: x41+x50 <=1 
C1119: x41+x51 <=1 
C1120: x41+x52-y41_52 <=1 
C1121: x41+x53 <=1 
C1122: x41+x54-y41_54 <=1 
C1123: x41+x60-y41_60 <=1 
C1124: x41+x61 <=1 
C1125: x41+x62-y41_62 <=1 
C1126: x41+x63 <=1 
C1127: x41+x65-y41_65 <=1 
C1128: x42+x43 <=1 
C1129: x42+x44 <=1 
C1130: x42+x45-y42_45 <=1 
C1131: x42+x48-y42_48 <=1 
C1132: x42+x49-y42_49 <=1 
C1133: x42+x50-y42_50 <=1 
C1134: x42+x51-y42_51 <=1 
C1135: x42+x54 <=1 
C1136: x42+x57-y42_57 <=1 
C1137: x42+x60-y42_60 <=1 
C1138: x42+x62 <=1 
C1139: x42+x63 <=1 
C1140: x42+x65 <=1 
C1141: x43+x44-y43_44 <=1 
C1142: x43+x45 <=1 
C1143: x43+x46 <=1 
C1144: x43+x48 <=1 
C1145: x43+x50 <=1 
C1146: x43+x51-y43_51 <=1 
C1147: x43+x53 <=1 
C1148: x43+x54-y43_54 <=1 
C1149: x43+x55-y43_55 <=1 
C1150: x43+x56-y43_56 <=1 
C1151: x43+x57 <=1 
C1152: x43+x58-y43_58 <=1 
C1153: x43+x62 <=1 
C1154: x43+x63-y43_63 <=1 
C1155: x44+x45-y44_45 <=1 
C1156: x44+x46-y44_46 <=1 
C1157: x44+x48-y44_48 <=1 
C1158: x44+x50-y44_50 <=1 
C1159: x44+x52 <=1 
C1160: x44+x54 <=1 
C1161: x44+x55-y44_55 <=1 
C1162: x44+x56 <=1 
C1163: x44+x60-y44_60 <=1 
C1164: x44+x61 <=1 
C1165: x44+x63-y44_63 <=1 
C1166: x44+x64 <=1 
C1167: x44+x65 <=1 
C1168: x45+x46 <=1 
C1169: x45+x47-y45_47 <=1 
C1170: x45+x48-y45_48 <=1 
C1171: x45+x49-y45_49 <=1 
C1172: x45+x50-y45_50 <=1 
C1173: x45+x51-y45_51 <=1 
C1174: x45+x52 <=1 
C1175: x45+x56-y45_56 <=1 
C1176: x45+x57 <=1 
C1177: x45+x58-y45_58 <=1 
C1178: x45+x59 <=1 
C1179: x45+x61 <=1 
C1180: x45+x62 <=1 
C1181: x45+x63 <=1 
C1182: x45+x64 <=1 
C1183: x46+x48-y46_48 <=1 
C1184: x46+x53 <=1 
C1185: x46+x54 <=1 
C1186: x46+x55 <=1 
C1187: x46+x57 <=1 
C1188: x46+x58 <=1 
C1189: x46+x60 <=1 
C1190: x46+x61-y46_61 <=1 
C1191: x46+x63-y46_63 <=1 
C1192: x47+x51 <=1 
C1193: x47+x54 <=1 
C1194: x47+x55 <=1 
C1195: x47+x56 <=1 
C1196: x47+x57-y47_57 <=1 
C1197: x47+x59-y47_59 <=1 
C1198: x47+x60 <=1 
C1199: x47+x61 <=1 
C1200: x47+x62-y47_62 <=1 
C1201: x47+x64 <=1 
C1202: x47+x65 <=1 
C1203: x48+x50-y48_50 <=1 
C1204: x48+x53-y48_53 <=1 
C1205: x48+x54 <=1 
C1206: x48+x55 <=1 
C1207: x48+x56-y48_56 <=1 
C1208: x48+x57 <=1 
C1209: x48+x58 <=1 
C1210: x48+x59 <=1 
C1211: x48+x60-y48_60 <=1 
C1212: x48+x65 <=1 
C1213: x49+x50-y49_50 <=1 
C1214: x49+x51 <=1 
C1215: x49+x52 <=1 
C1216: x49+x53 <=1 
C1217: x49+x54-y49_54 <=1 
C1218: x49+x55-y49_55 <=1 
C1219: x49+x56 <=1 
C1220: x49+x57-y49_57 <=1 
C1221: x49+x58 <=1 
C1222: x49+x59-y49_59 <=1 
C1223: x49+x60-y49_60 <=1 
C1224: x49+x62 <=1 
C1225: x49+x63 <=1 
C1226: x50+x52 <=1 
C1227: x50+x55 <=1 
C1228: x50+x56 <=1 
C1229: x50+x59 <=1 
C1230: x50+x61 <=1 
C1231: x50+x62-y50_62 <=1 
C1232: x50+x63-y50_63 <=1 
C1233: x50+x65-y50_65 <=1 
C1234: x51+x52-y51_52 <=1 
C1235: x51+x55-y51_55 <=1 
C1236: x51+x56 <=1 
C1237: x51+x57 <=1 
C1238: x51+x58-y51_58 <=1 
C1239: x51+x59 <=1 
C1240: x51+x60-y51_60 <=1 
C1241: x51+x62 <=1 
C1242: x51+x63 <=1 
C1243: x51+x64 <=1 
C1244: x52+x54-y52_54 <=1 
C1245: x52+x56-y52_56 <=1 
C1246: x52+x58-y52_58 <=1 
C1247: x52+x59 <=1 
C1248: x52+x60-y52_60 <=1 
C1249: x52+x61 <=1 
C1250: x52+x63-y52_63 <=1 
C1251: x52+x64-y52_64 <=1 
C1252: x53+x55-y53_55 <=1 
C1253: x53+x56 <=1 
C1254: x53+x57-y53_57 <=1 
C1255: x53+x58 <=1 
C1256: x53+x59-y53_59 <=1 
C1257: x53+x60 <=1 
C1258: x53+x63-y53_63 <=1 
C1259: x54+x55-y54_55 <=1 
C1260: x54+x59-y54_59 <=1 
C1261: x54+x60 <=1 
C1262: x54+x64 <=1 
C1263: x54+x65-y54_65 <=1 
C1264: x55+x59 <=1 
C1265: x55+x60 <=1 
C1266: x55+x61-y55_61 <=1 
C1267: x55+x63 <=1 
C1268: x55+x65-y55_65 <=1 
C1269: x56+x57 <=1 
C1270: x56+x58-y56_58 <=1 
C1271: x56+x59-y56_59 <=1 
C1272: x56+x61 <=1 
C1273: x56+x62 <=1 
C1274: x56+x63-y56_63 <=1 
C1275: x56+x64-y56_64 <=1 
C1276: x56+x65 <=1 
C1277: x57+x58-y57_58 <=1 
C1278: x57+x59 <=1 
C1279: x57+x63 <=1 
C1280: x58+x60-y58_60 <=1 
C1281: x58+x62-y58_62 <=1 
C1282: x58+x64-y58_64 <=1 
C1283: x59+x60 <=1 
C1284: x59+x63-y59_63 <=1 
C1285: x60+x61 <=1 
C1286: x60+x64 <=1 
C1287: x60+x65 <=1 
C1288: x61+x64 <=1 
C1289: x61+x65 <=1 
C1290: x62+x65-y62_65 <=1 
C1291: x63+x64-y63_64 <=1 

binary
x0
x1
x2
x3
x4
x5
x6
x7
x8
x9
x10
x11
x12
x13
x14
x15
x16
x17
x18
x19
x20
x21
x22
x23
x24
x25
x26
x27
x28
x29
x30
x31
x32
x33
x34
x35
x36
x37
x38
x39
x40
x41
x42
x43
x44
x45
x46
x47
x48
x49
x50
x51
x52
x53
x54
x55
x56
x57
x58
x59
x60
x61
x62
x63
x64
x65
