problem_generation/data/GISP/train/er_n=66_m=1291_p=0.60_SET2_setparam=100.00_alpha=0.50_681.sol
objective value:                                 1263
x0                                                  1 	(obj:100)
x8                                                  1 	(obj:100)
x14                                                 1 	(obj:100)
x17                                                 1 	(obj:100)
x20                                                 1 	(obj:100)
x22                                                 1 	(obj:100)
x24                                                 1 	(obj:100)
x30                                                 1 	(obj:100)
x32                                                 1 	(obj:100)
x39                                                 1 	(obj:100)
x42                                                 1 	(obj:100)
x49                                                 1 	(obj:100)
x60                                                 1 	(obj:100)
y0_14                                               1 	(obj:-1)
y14_24                                              1 	(obj:-1)
y14_42                                              1 	(obj:-1)
y22_32                                              1 	(obj:-1)
y17_39                                              1 	(obj:-1)
y24_32                                              1 	(obj:-1)
y32_49                                              1 	(obj:-1)
y17_24                                              1 	(obj:-1)
y8_60                                               1 	(obj:-1)
y24_49                                              1 	(obj:-1)
y49_60                                              1 	(obj:-1)
y20_24                                              1 	(obj:-1)
y24_30                                              1 	(obj:-1)
y14_60                                              1 	(obj:-1)
y20_32                                              1 	(obj:-1)
y8_30                                               1 	(obj:-1)
y14_22                                              1 	(obj:-1)
y14_49                                              1 	(obj:-1)
y14_30                                              1 	(obj:-1)
y20_60                                              1 	(obj:-1)
y24_39                                              1 	(obj:-1)
y17_49                                              1 	(obj:-1)
y42_60                                              1 	(obj:-1)
y17_30                                              1 	(obj:-1)
y30_39                                              1 	(obj:-1)
y20_22                                              1 	(obj:-1)
y20_49                                              1 	(obj:-1)
y8_20                                               1 	(obj:-1)
y42_49                                              1 	(obj:-1)
y8_24                                               1 	(obj:-1)
y8_42                                               1 	(obj:-1)
y30_42                                              1 	(obj:-1)
y14_39                                              1 	(obj:-1)
y30_32                                              1 	(obj:-1)
y22_24                                              1 	(obj:-1)
y14_20                                              1 	(obj:-1)
y22_42                                              1 	(obj:-1)
